n = 7;
m = 6;
dias_regimen_alto_permitidos = 1;
porcentaje_regimen_alto = 65;
capacidad = [1000, 300, 500];
costo_produccion = [60, 50, 80];
demanda = [| 150, 120, 100, 180, 160, 150, 140
           | 130, 120, 110, 100, 90, 80, 70
           | 100, 90, 80, 70, 60, 100, 110
           | 90, 80, 70, 60, 100, 90, 80
           | 480, 470, 460, 450, 100, 490, 100
           | 470, 460, 450, 400, 490, 480, 470 |];
pago_por_mw = [85, 90, 100, 95, 110, 90];
G = 55;
